c --- [ banner ] -------------------------------------------------------------
c 
c CaDiCaL Radically Simplified CDCL SAT Solver
c Copyright (c) 2016-2021 A. Biere, M. Fleury, N. Froleyks
c 
c Version 1.5.2 a5f15211db36c3956764e18194dd5bd63bf3b5e6
c g++ (GCC) 9.3.0 -Wall -Wextra -O3 -DNDEBUG
c Fri Oct 21 01:27:37 EDT 2022 Linux gra-login3 3.10.0-1160.66.1.el7.x86_64 x86_64
c 
c --- [ limit ] --------------------------------------------------------------
c 
c setting conflict limit to 200000 conflicts (due to '200000')
c 
c --- [ parsing input ] ------------------------------------------------------
c 
c reading DIMACS file from '33.cubes3189.adj'
c opening file to read '33.cubes3189.adj'
c found 'p cnf 6160 1595472' header
c parsed 1595472 clauses in 17.89 seconds process time
c closing file '33.cubes3189.adj'
c after reading 1457566755 bytes 1390.0 MB
c 
c --- [ options ] ------------------------------------------------------------
c 
c all options are set to their default value
c 
c --- [ solving ] ------------------------------------------------------------
c 
c time measured in process time since initialization
c 
c  seconds    reductions  redundant   irredundant
c          MB     restarts       trail       variables
c            level   conflicts       glue         remaining
c 
c * 17.89 1379  0 0   0    0    0  0% 0 1595422 2475 40%
c { 18.53 1410  0 0   0    0    0  0% 0 1595422 2475 40%
c i 19.78 1452 573 0   0   34   31 26% 3 1595422 2474 40%
c i 19.92 1454 350 0   4   57   44 23% 5 1595422 2458 40%
c i 21.21 1480 261 0  13   92   72 25% 14 1595422 2454 40%
c i 21.21 1480 260 0  13   93   72 25% 14 1595422 2449 40%
c i 21.54 1482 242 0  15  110   86 26% 24 1595422 2433 39%
c i 21.60 1483 241 0  16  111   86 26% 23 1595422 2432 39%
c i 22.00 1486 232 0  20  126   99 26% 26 1595422 2416 39%
c i 22.53 1489 211 0  26  147  118 26% 26 1595422 2390 39%
c i 22.99 1491 194 0  33  170  138 26% 26 1595422 2364 38%
c i 23.19 1491 195 0  36  185  151 26% 28 1595422 2362 38%
c i 23.83 1491 178 0  49  247  205 27% 35 1595422 2361 38%
c i 24.18 1492 165 0  61  287  239 27% 37 1595422 2360 38%
c i 24.18 1492 165 0  62  288  239 27% 37 1595422 2348 38%
c - 27.59 1420 163 1  66  300  250 27% 38 168452 2348 38%
c i 27.79 1420 157 1  71  323  271 27% 38 168452 2347 38%
c i 27.85 1420 150 1  76  345  288 28% 38 168452 2346 38%
c i 27.86 1420 149 1  76  348  290 28% 38 168452 2345 38%
c i 27.87 1420 149 1  76  350  290 28% 38 168452 2343 38%
c 
c  seconds     reductions  redundant   irredundant
c          MB      restarts       trail       variables
c             level   conflicts       glue         remaining
c 
c i 28.24 1420 141 1  96  435  358 28% 43 168452 2342 38%
c i 28.55 1420 139 1 110  494  410 28% 47 168452 2341 38%
c i 28.58 1420 139 1 111  501  416 28% 47 168452 2340 38%
c i 28.75 1420 128 1 118  568  470 28% 45 168452 2339 38%
c i 28.81 1420 117 1 118  631  510 28% 43 168452 2338 38%
c i 28.81 1420 117 1 118  633  511 28% 43 168452 2337 38%
c i 28.81 1420 116 1 118  641  517 28% 42 168452 2336 38%
c i 28.84 1420 108 1 118  695  548 29% 41 168452 2335 38%
c i 28.85 1420 107 1 118  706  558 29% 40 168452 2334 38%
c i 28.86 1420 106 1 118  712  562 29% 40 168452 2333 38%
c i 28.87 1420 103 1 118  740  577 29% 39 168452 2332 38%
c i 28.88 1420 100 1 118  769  601 29% 38 168452 2331 38%
c i 28.90 1420 98 1 118  804  626 29% 38 168452 2330 38%
c } 29.01 1420 89 1 130 1004  787 29% 38 168452 2330 38%
c [ 29.01 1420  0 1 130 1004  787  0% 0 168452 2330 38%
c O 29.01 1420  1 1 130 1005  788 11% 1 168452 2330 38%
c - 29.43 1505 24 2 130 1035  696 31% 21 168398 2330 38%
c i 29.51 1505 23 2 130 1129  757 33% 20 168398 2329 38%
c i 29.53 1505 23 2 130 1226  818 33% 20 168398 2328 38%
c i 29.53 1505 23 2 130 1237  826 33% 20 168398 2327 38%
c 
c  seconds    reductions  redundant   irredundant
c          MB     restarts       trail       variables
c            level   conflicts       glue         remaining
c 
c i 29.55 1505 22 2 130 1307  879 33% 19 168398 2326 38%
c i 29.55 1505 22 2 130 1310  881 33% 19 168398 2325 38%
c i 29.67 1505 22 2 130 1721 1139 32% 19 168398 2324 38%
c i 29.78 1505 21 2 131 2079 1353 32% 18 168398 2322 38%
c - 30.00 1504 22 3 131 2140 1010 32% 19 168376 2322 38%
c i 30.20 1504 22 3 131 2219 1064 53% 19 168376 2321 38%
c i 30.21 1504 22 3 131 2250 1085 52% 19 168376 2320 38%
c i 30.24 1504 23 3 131 2362 1157 52% 20 168376 2319 38%
c i 30.38 1504 23 3 131 2800 1432 52% 20 168376 2309 37%
c ] 30.45 1504 23 3 131 3007 1563 53% 20 168376 2309 37%
c { 30.45 1504 89 3 131 3007 1563 78% 38 168376 2309 37%
c F 30.46 1504 89 3 131 3008 1564 78% 38 168376 2304 37%
c i 30.56 1504 86 3 131 3042 1594 77% 37 168376 2303 37%
c i 30.57 1504 86 3 131 3049 1599 77% 37 168376 2302 37%
c i 30.61 1504 84 3 131 3091 1635 76% 37 168376 2301 37%
c i 30.62 1504 83 3 131 3120 1658 75% 37 168376 2300 37%
c i 30.68 1504 75 3 131 3310 1796 72% 34 168376 2298 37%
c i 30.69 1504 75 3 131 3321 1805 72% 34 168376 2297 37%
c - 30.94 1421 66 4 131 3613 1451 68% 32 168130 2297 37%
c i 30.98 1421 66 4 131 3620 1456 68% 32 168130 2296 37%
c 
c  seconds    reductions  redundant   irredundant
c          MB     restarts       trail       variables
c            level   conflicts       glue         remaining
c 
c i 31.14 1421 63 4 133 3783 1557 66% 31 168130 2295 37%
c i 31.17 1421 62 4 133 3825 1592 66% 31 168130 2294 37%
c i 31.19 1421 62 4 133 3866 1616 65% 31 168130 2293 37%
c i 31.22 1421 60 4 133 3977 1702 65% 30 168130 2292 37%
c i 31.22 1421 59 4 133 3992 1714 64% 30 168130 2291 37%
c i 31.22 1421 59 4 133 3994 1714 64% 30 168130 2290 37%
c i 31.23 1421 59 4 133 4022 1733 64% 30 168130 2289 37%
c i 31.24 1421 57 4 133 4093 1769 64% 29 168130 2288 37%
c i 31.25 1421 56 4 133 4133 1792 64% 28 168130 2287 37%
c i 31.25 1421 56 4 133 4137 1795 64% 28 168130 2286 37%
c i 31.27 1421 55 4 133 4202 1846 63% 28 168130 2285 37%
c i 31.32 1421 52 4 133 4472 2016 62% 27 168130 2284 37%
c i 31.33 1421 52 4 133 4502 2039 62% 27 168130 2283 37%
c i 31.35 1421 51 4 133 4593 2086 61% 27 168130 2282 37%
c i 31.35 1421 51 4 133 4625 2108 61% 27 168130 2281 37%
c i 31.41 1421 48 4 133 4833 2223 60% 26 168130 2280 37%
c i 31.46 1421 48 4 133 4956 2321 60% 26 168130 2279 37%
c d 31.78 1421 47 4 133 5001 2356 60% 26 155554 2268 37%
c 2 31.81 1421 47 4 133 5001 3724 60% 26 155554 2267 37%
c p 35.70 1421 47 4 133 5001 7725 60% 26 155554 2166 35%
c 
c  seconds    reductions  redundant   irredundant
c          MB     restarts       trail       variables
c            level   conflicts       glue         remaining
c 
c - 36.17 1353 44 5 133 5452 2012 59% 25 129485 2166 35%
c # 36.37 1353 40 5 135 6009 2329 57% 24 129485 2166 35%
c } 36.65 1353 37 5 146 6882 2960 56% 22 129485 2166 35%
c 1 36.65 1353 37 5 146 6882 2960 56% 22 129485 2166 35%
c 
c --- [ writing output ] -----------------------------------------------------
c 
c writing simplified CNF to DIMACS file 'simp/33.cubes3189.adj.simp1'
c * 36.65 1353 37 5 146 6882 2960 56% 22 129485 2166 35%
c opening file to write 'simp/33.cubes3189.adj.simp1'
c writing 'p cnf 6160 129485' header
c closing file 'simp/33.cubes3189.adj.simp1'
c after writing 68452595 bytes 65.3 MB
c wrote 129485 clauses in 0.41 seconds process time
c 
c --- [ writing extension ] --------------------------------------------------
c 
c writing extension stack to 'simp/33.cubes3189.adj.ext1'
c opening file to write 'simp/33.cubes3189.adj.ext1'
c closing file 'simp/33.cubes3189.adj.ext1'
c after writing 12833 bytes 0.0 MB
c wrote 861 witnesses in 0.00 seconds process time
c 
c --- [ result ] -------------------------------------------------------------
c 
s SATISFIABLE
c 
c --- [ run-time profiling ] -------------------------------------------------
c 
c process time taken by individual solving procedures
c (percentage relative to process time for solving)
c 
c        17.89   95.37% parse
c        14.53   77.47% search
c        12.45   66.38% unstable
c         4.23   22.53% simplify
c         3.88   20.70% probe
c         1.44    7.66% stable
c         0.64    3.43% lucky
c         0.02    0.13% ternary
c   =================================
c        18.76   50.62% solve
c 
c last line shows process time for solving
c (percentage relative to total process time)
c 
c --- [ statistics ] ---------------------------------------------------------
c 
c chronological:              1536        22.32 %  of conflicts
c conflicts:                  6882       366.87    per second
c decisions:                 26540      1414.80    per second
c fixed:                       839        13.62 %  of all variables
c learned:                    6737        97.89 %  per conflict
c learned_lits:            1311897       100.00 %  learned literals
c minimized:                     0         0.00 %  learned literals
c shrunken:                 909973        69.36 %  learned literals
c minishrunken:              64720         4.93 %  learned literals
c propagations:            1171137         0.06 M  per second
c reduced:                    1901        27.62 %  per conflict
c rephased:                      3      2294.00    interval
c restarts:                    146        47.14    interval
c stabilizing:                   1        29.10 %  of conflicts
c substituted:                  11         0.18 %  of all variables
c subsumed:                   1995         0.06 %  of all clauses
c ternary:                    1368         0.66 %  of resolved
c weakened:                     22         2.00    average size
c 
c seconds are measured in process time for solving
c 
c --- [ resources ] ----------------------------------------------------------
c 
c total process time since initialization:        37.06    seconds
c total real time since initialization:           37.41    seconds
c maximum resident set size of process:         1589.18    MB
c 
c --- [ shutting down ] ------------------------------------------------------
c 
c exit 10
WARNING! DIMACS header mismatch: wrong number of variables.
============================[ Problem Statistics ]=============================
|                                                                             |
|  Number of variables:          6120                                         |
|  Number of clauses:          129485                                         |
|  Parse time:                   0.96 s                                       |
|  Simplification time:          0.02 s                                       |
|                                                                             |
============================[ Search Statistics ]====================================================
| Conflicts |          ORIGINAL         |          LEARNT          | Num Sols |      SUBGRAPHS      |
|           |    Vars  Clauses Literals |    Limit  Clauses Lit/Cl |          | Canonical Noncanon. |
=====================================================================================================
|       278 |    6026   129663 14435308 |     2000      278     28 |        0 |        58       178 |
|       578 |    6026   129813 14436711 |     2000      578     33 |        0 |        90       328 |
|      1236 |    6026   130246 14442344 |     2000     1236     30 |        0 |       208       761 |
|      1983 |    6026   130656 14446731 |     2000     1983     37 |        0 |       293      1171 |
|      3870 |    6008   132037 14461118 |     3600     2868     21 |        0 |       595      2552 |
|      4645 |    6007   132053 14461373 |     5006     1851     11 |        0 |       596      2568 |
|      5824 |    6007   132093 14462175 |     5006     3030     48 |        0 |       609      2608 |
|      7580 |    6007   132141 14463033 |     5006     4786     67 |        0 |       631      2656 |
|     10332 |    6007   132331 14465959 |     6307     5039     62 |        0 |       687      2846 |
|     14502 |    6007   132657 14470528 |     7556     6058     59 |        0 |       758      3172 |
|     21305 |    6007   133694 14481815 |     9994     4699     18 |        0 |       966      4209 |
=====================================================================================================
Number of solutions   : 0
Canonical subgraphs   : 991            (36 /sec)
          order  3    : 1              (200000 /sec)
          order  4    : 1              (500000 /sec)
          order  5    : 1              (250000 /sec)
          order  6    : 1              (52632 /sec)
          order  7    : 1              (7299 /sec)
          order  8    : 1              (1992 /sec)
          order  9    : 2              (777 /sec)
          order 10    : 7              (394 /sec)
          order 11    : 12             (262 /sec)
          order 12    : 44             (137 /sec)
          order 13    : 72             (95 /sec)
          order 14    : 224            (57 /sec)
          order 15    : 377            (39 /sec)
          order 16    : 112            (32 /sec)
          order 17    : 34             (23 /sec)
          order 18    : 45             (17 /sec)
          order 19    : 12             (13 /sec)
          order 20    : 19             (11 /sec)
          order 21    : 25             (11 /sec)
          order 22    : 0              (-nan /sec)
Noncanonical subgraphs: 4420           (349 /sec)
          order  3    : 0              (-nan /sec)
          order  4    : 0              (-nan /sec)
          order  5    : 0              (-nan /sec)
          order  6    : 0              (-nan /sec)
          order  7    : 0              (-nan /sec)
          order  8    : 0              (-nan /sec)
          order  9    : 0              (-nan /sec)
          order 10    : 0              (-nan /sec)
          order 11    : 0              (-nan /sec)
          order 12    : 0              (-nan /sec)
          order 13    : 338            (19137 /sec)
          order 14    : 1128           (2671 /sec)
          order 15    : 1419           (1612 /sec)
          order 16    : 645            (789 /sec)
          order 17    : 481            (163 /sec)
          order 18    : 270            (83 /sec)
          order 19    : 112            (60 /sec)
          order 20    : 0              (-nan /sec)
          order 21    : 2              (7018 /sec)
Canonicity checking   : 27.2391 s
Noncanonicity checking: 12.6681 s
Total canonicity time : 39.9073 s
database reductions   : 6
restarts              : 85
conflicts             : 23633          (490 /sec)
decisions             : 55344          (0.00 % random) (1148 /sec)
propagations          : 2196967        (45562 /sec)
conflict literals     : 2017154        (49.74 % deleted)
actual reward         : 0.126508
Memory used           : 93.00 MB
CPU time              : 48.2188 s

UNSATISFIABLE
